InboundTrucks  = 50;
OutboundTrucks = 50;
InboundDoors   = 15;
OutboundDoors  = 15;
ReleaseTime    = [4,18,2,8,3,15,14,15,20,12,120,46,32,82,23,69,75,97,117,118,20,109,77,54,112,49,95,33,60,23,22,23,103,89,21,68,107,47,74,112,23,87,48,117,76,83,90,49,64,49];
UnloadTime     = [5,8,6,13,11,7,11,10,14,15,34,22,34,28,16,29,11,10,33,32,33,25,32,32,30,29,33,16,26,33,29,14,10,28,13,30,23,31,14,13,18,23,28,12,27,27,35,22,12,19];
LoadTime       = [10,7,11,5,7,6,14,8,5,11,20,16,14,24,16,11,11,21,23,15,13,21,16,11,12,17,21,25,10,24,11,14,14,13,25,18,18,13,10,17,13,25,16,21,13,12,20,20,25,10];
TransferTime   = [| 3,0,0,2,0,1,0,2,3,4,0,0,0,0,0,0,0,0,0,0,0,0,5,0,0,0,0,0,0,0,0,0,0,0,0,0,0,0,0,0,0,0,0,0,0,0,0,0,0,0 | 2,2,0,0,2,2,4,4,1,0,0,0,0,0,0,0,0,0,0,0,0,0,0,0,0,0,0,0,0,0,0,0,0,0,0,0,0,0,0,0,0,0,0,0,0,0,0,0,0,0 | 4,0,1,0,0,1,0,0,0,0,0,0,0,0,0,0,0,0,0,0,0,0,0,0,0,0,0,0,0,0,0,0,0,0,0,0,0,0,8,0,0,0,0,0,0,0,0,0,0,0 | 2,2,0,1,0,3,3,0,0,2,0,0,0,0,0,0,0,0,0,0,0,0,0,0,0,0,0,0,6,0,0,0,0,0,0,0,0,0,0,0,0,0,0,0,0,0,0,0,0,0 | 3,0,3,0,0,0,2,0,2,0,0,0,0,0,0,0,0,0,0,0,0,0,0,0,0,0,0,6,0,0,0,0,0,0,0,0,0,0,0,0,0,0,0,0,0,0,4,0,0,0 | 0,0,0,0,0,0,3,4,0,2,0,0,0,0,0,0,0,0,0,0,0,0,0,0,0,0,0,0,0,0,0,0,0,0,0,0,0,0,0,0,0,0,0,0,3,0,0,0,0,0 | 3,1,0,0,1,3,1,2,1,0,0,0,0,3,0,0,0,0,0,0,0,0,0,0,0,0,0,4,0,0,0,0,0,0,0,0,0,0,0,0,0,0,0,0,0,0,0,0,0,0 | 3,0,1,0,0,0,3,3,4,3,0,0,0,0,0,0,0,0,0,0,0,0,0,0,5,0,0,0,0,0,0,0,0,0,0,0,0,0,0,0,0,0,0,0,0,0,0,0,0,0 | 2,0,0,3,1,1,1,2,1,0,0,0,0,0,0,7,0,0,0,0,0,0,0,0,0,0,0,0,0,0,0,0,0,0,0,0,0,0,0,0,0,0,0,0,0,0,0,0,0,0 | 2,2,1,3,0,4,0,2,4,0,0,0,0,0,0,0,0,0,0,0,0,0,0,0,0,8,0,0,0,0,0,0,0,0,0,0,0,0,0,0,0,0,0,0,8,0,0,0,0,0 | 7,6,0,0,0,8,3,8,0,0,0,0,6,6,0,0,6,0,0,0,6,4,0,0,6,5,3,0,6,0,0,0,0,6,0,0,0,0,0,5,0,0,0,0,0,0,0,3,0,0 | 0,0,0,8,4,8,4,4,6,0,0,0,3,0,6,0,0,0,0,5,5,0,8,6,0,3,0,0,0,4,4,0,0,4,5,0,5,0,8,0,4,6,6,0,0,0,0,0,6,4 | 0,7,0,0,7,6,0,0,0,0,4,0,5,0,0,0,0,0,5,0,8,4,3,0,6,0,3,0,0,0,4,5,0,0,8,0,0,0,8,0,0,4,7,7,0,4,0,0,5,0 | 0,0,0,0,0,0,0,0,0,0,0,8,0,0,4,0,0,0,0,0,0,7,0,0,0,0,7,0,0,0,0,0,0,0,6,0,0,0,6,7,0,8,0,7,0,0,4,8,0,5 | 5,6,0,3,0,0,6,0,6,5,0,3,0,0,0,3,3,0,0,0,0,7,0,0,5,0,0,0,0,0,0,0,0,0,6,8,0,0,0,0,0,5,8,0,0,0,0,0,6,4 | 0,0,0,0,0,8,7,0,0,0,0,0,8,0,6,0,0,0,0,5,0,6,0,3,0,0,0,0,0,0,0,5,7,0,4,0,8,6,0,3,0,0,0,6,0,4,7,5,3,0 | 0,0,6,0,8,8,6,0,6,7,0,5,5,0,0,0,0,0,5,0,0,0,6,5,8,0,0,0,0,0,0,0,0,0,4,0,3,0,6,0,5,6,5,0,0,4,0,0,3,5 | 5,0,0,0,0,0,7,0,0,3,8,5,0,7,0,8,0,0,0,0,0,0,0,0,0,0,7,0,0,0,4,0,0,5,0,0,0,0,3,0,0,4,0,0,0,0,0,6,0,0 | 8,4,0,0,0,0,0,3,0,4,8,0,0,0,0,3,0,0,0,0,0,0,0,6,7,0,0,0,3,0,0,7,0,0,0,0,0,0,0,6,0,0,0,4,0,0,0,0,6,0 | 0,0,0,3,4,0,3,7,6,0,6,0,0,0,4,0,8,0,0,4,0,0,0,6,0,5,0,0,0,0,0,0,0,0,5,3,4,5,0,7,0,0,0,8,0,8,5,6,0,0 | 4,0,4,0,0,0,3,0,0,0,0,0,5,0,0,0,3,0,6,0,4,3,0,8,7,0,0,0,0,0,0,5,7,0,7,7,7,7,8,0,0,0,8,0,0,5,6,4,7,0 | 8,0,0,0,4,0,0,0,0,3,8,0,0,0,0,0,4,7,7,0,0,0,7,0,8,0,0,0,3,5,0,0,0,0,0,0,0,0,0,0,0,0,0,6,0,7,8,0,5,0 | 0,0,0,3,0,8,0,8,8,0,0,5,0,0,0,6,7,0,0,0,0,0,0,5,3,0,0,3,0,0,0,0,0,0,0,0,0,5,3,0,3,0,0,7,8,0,0,0,0,6 | 3,4,0,0,0,3,3,4,0,0,7,0,0,0,8,0,0,0,3,0,0,5,0,0,5,7,0,7,3,8,5,8,6,0,0,0,0,0,0,8,6,0,0,0,0,0,7,0,6,5 | 6,5,0,0,0,0,8,0,0,0,0,0,0,0,0,0,0,3,8,0,6,0,0,0,0,5,0,0,0,7,8,6,7,0,0,0,0,0,0,8,6,0,5,0,0,0,0,3,0,0 | 6,0,0,0,7,0,0,0,8,0,0,0,4,0,5,0,0,0,0,7,3,4,3,4,7,0,0,0,0,0,0,0,4,6,0,0,0,4,4,0,6,0,0,3,0,5,0,0,0,4 | 3,0,0,0,0,4,7,5,5,0,0,6,0,5,7,0,0,5,6,0,0,0,0,0,7,0,0,0,0,4,0,4,0,0,0,0,0,6,0,0,0,8,0,0,8,0,0,6,6,8 | 0,0,5,0,0,0,5,4,0,6,0,4,0,0,0,8,8,0,6,0,0,0,0,0,6,0,0,4,7,0,0,6,0,0,0,5,0,6,0,0,6,0,0,0,0,0,8,0,3,8 | 0,0,0,0,0,8,0,0,0,0,0,0,6,0,5,0,6,0,0,0,6,0,7,4,5,0,0,0,4,0,0,0,0,7,5,0,0,8,8,0,7,0,0,0,0,0,0,0,0,3 | 0,0,4,0,0,0,0,0,7,0,0,7,0,0,0,0,0,0,5,0,5,0,0,0,5,0,0,6,0,4,0,0,4,6,0,0,0,8,0,6,0,0,4,8,0,0,0,8,0,0 | 0,0,0,3,7,0,7,6,0,4,3,0,8,0,0,7,0,3,7,7,7,0,0,0,0,0,0,0,5,0,0,0,0,0,0,0,0,8,7,4,0,0,3,5,0,0,5,7,7,5 | 0,0,0,0,5,0,5,3,0,8,5,0,0,0,8,0,0,5,0,0,0,0,8,0,0,8,4,0,4,0,0,4,0,0,5,0,6,0,0,6,0,0,6,0,0,6,0,0,0,0 | 0,0,0,4,0,8,0,0,5,4,0,6,0,8,5,0,0,0,0,4,0,0,0,0,0,0,3,3,0,0,5,7,8,6,0,7,0,0,6,0,0,0,7,7,0,5,0,0,0,0 | 0,0,5,0,0,0,0,8,0,5,6,0,8,8,0,3,8,8,3,6,0,3,3,0,0,5,5,0,0,5,3,5,5,6,0,5,0,3,0,7,8,0,4,0,0,0,0,5,0,5 | 0,0,4,3,0,0,0,3,0,0,0,0,0,0,0,0,0,0,0,0,0,0,0,0,0,3,6,3,0,0,0,3,0,0,6,0,0,0,7,6,0,0,0,0,8,0,0,4,0,0 | 0,0,0,0,0,0,0,7,0,5,0,0,7,0,7,0,0,0,0,0,3,0,0,0,0,7,0,7,0,5,0,0,0,3,0,0,5,4,3,5,0,0,0,4,5,0,0,6,7,0 | 6,0,0,0,0,0,0,0,0,0,0,0,0,0,4,7,0,0,8,5,0,0,0,0,4,7,3,5,3,0,6,0,0,4,5,7,0,7,0,0,0,0,0,0,8,8,7,0,4,0 | 5,0,0,8,0,0,0,0,4,0,7,3,7,3,8,0,0,3,0,0,4,8,0,0,4,7,0,0,8,0,0,7,0,0,0,0,0,3,0,0,0,0,8,6,0,0,0,0,3,5 | 0,0,3,0,4,7,4,4,4,0,4,6,3,0,0,0,0,3,0,7,3,0,0,3,0,0,0,8,0,0,5,0,7,0,0,0,0,0,6,0,0,4,3,4,0,0,0,0,8,0 | 0,6,4,8,0,0,0,3,0,5,0,6,0,6,0,0,8,0,7,8,3,0,0,3,3,5,0,6,0,0,0,0,0,8,0,4,0,8,0,0,0,0,0,0,0,0,5,5,7,0 | 0,6,0,0,6,0,0,0,0,5,7,0,0,0,0,0,0,0,0,0,0,4,0,0,5,0,0,0,8,0,0,3,0,8,0,0,3,0,0,0,4,0,7,3,0,5,4,0,3,0 | 0,0,0,0,0,7,5,7,0,8,5,7,0,5,0,0,0,5,0,0,4,0,5,0,0,0,8,0,0,0,0,0,7,0,8,0,4,0,6,0,0,0,0,0,0,8,0,6,0,5 | 3,0,7,0,3,0,0,5,4,0,0,3,0,3,6,0,3,0,0,0,6,0,4,4,0,0,0,0,0,0,4,8,0,8,0,4,0,0,0,0,0,0,0,0,0,0,8,5,7,0 | 0,0,0,0,0,0,6,0,3,3,0,0,0,0,0,7,7,0,0,0,0,0,0,8,7,3,7,0,0,0,0,0,0,8,0,4,8,3,3,0,0,6,0,0,0,0,0,0,0,0 | 0,0,0,5,0,3,6,8,8,0,0,4,0,0,0,0,8,0,0,6,0,0,8,5,0,0,8,3,3,0,4,0,0,0,3,3,0,0,6,0,6,0,4,0,0,4,0,5,0,0 | 6,0,0,5,0,7,0,0,6,0,0,0,3,0,0,0,0,0,6,0,4,0,8,0,0,8,0,0,0,8,4,6,5,0,0,3,3,3,4,0,0,6,0,5,3,6,0,7,8,4 | 7,0,0,0,5,0,0,0,0,0,6,0,0,0,0,0,0,0,0,0,0,8,5,0,0,0,0,4,0,5,0,0,0,0,5,0,4,0,0,0,0,8,0,0,3,0,0,6,0,0 | 0,5,0,0,0,7,0,0,0,0,0,0,7,4,5,0,0,0,6,0,5,0,0,0,5,0,6,0,0,0,0,0,0,7,6,0,3,8,0,3,4,0,0,0,0,5,0,7,8,6 | 0,0,0,0,8,0,0,0,0,0,0,0,0,0,0,8,6,0,0,0,0,8,0,4,0,7,0,8,5,0,0,0,0,3,0,0,0,4,0,6,8,0,7,0,0,0,5,0,0,0 | 0,0,0,7,0,4,0,0,7,0,4,0,8,0,0,6,0,0,3,0,6,0,0,5,3,0,6,0,0,0,0,0,7,4,0,0,0,6,0,0,0,0,0,0,0,3,0,0,0,0 |];
